/*********************************************
 * OPL 22.1.1.0 Data
 * Author: Quang Chien
 * Creation Date: Mar 8, 2024 at 3:28:32 PM
 *********************************************/
 
n = 5;

/* Các biến cần đặt:
v_i: giá trị của vật thứ i
x_i: có lấy vật i hay không --> biến quyết định
w_i: trọng lượng vật i
c: trọng lượng không được vượt quá
*/

v = [1 2 3 2 4];
w = [2 3 6 4 5];
c = 15;
